data/benchmarks/bayes/75-14-1-q.cnf
p cnf 924 859
c weights 0.106816 0.893184 1 1 1 1 1 1 1 1 1 1 1 1 1 1 1 1 1 1 1 1 1 1 1 1 1 1 1 1 1 1 1 1 1 1 1 1 1 1 1 1 1 1 1 1 1 1 1 1 1 1 1 1 1 1 1 1 1 1 1 1 1 1 1 1 1 1 1 1 1 1 1 1 1 1 1 1 1 1 1 1 1 1 1 1 1 1 1 1 1 1 1 1 1 1 1 1 1 1 1 1 1 1 1 1 1 1 1 1 1 1 1 1 1 1 1 1 1 1 1 1 1 1 1 1 1 1 1 1 1 1 1 1 1 1 1 1 1 1 1 1 1 1 1 1 1 1 1 1 1 1 1 1 1 1 1 1 1 1 1 1 1 1 1 1 1 1 1 1 1 1 1 1 1 1 1 1 1 1 1 1 1 1 1 1 1 1 1 1 1 1 1 1 1 1 1 1 1 1 1 1 1 1 1 1 1 1 1 1 1 1 1 1 1 1 1 1 1 1 1 1 1 1 1 1 1 1 1 1 1 1 1 1 1 1 1 1 1 1 1 1 1 1 1 1 1 1 1 1 1 1 1 1 1 1 1 1 1 1 1 1 1 1 1 1 1 1 1 1 1 1 1 1 1 1 1 1 1 1 1 1 1 1 1 1 1 1 1 1 1 1 1 1 1 1 1 1 1 1 1 1 1 1 1 1 1 1 1 1 1 1 1 1 1 1 1 1 1 1 1 1 1 1 1 1 1 1 1 1 1 1 1 1 1 1 1 1 1 1 1 1 1 1 1 1 1 1 1 1 1 1 1 1 1 1 1 1 1 1 1 1 1 1 1 1 1 1 1 1 1 1 1 1 1 1 1 1 1 1 1 1 1 1 1 1 1 1 1 1 1 1 0.5 0.5 0.5 0.5 0.5 0.5 0.5 0.5 0.5 0.5 0.5 0.5 0.5 0.5 0.5 0.5 0.5 0.5 0.5 0.5 0.5 0.5 0.5 0.5 0.5 0.5 0.5 0.5 0.860061 0.13993900000000004 0.501578 0.49842200000000003 0.716716 0.283284 0.935364 0.06463600000000003 0.836026 0.16397399999999995 0.941881 0.05811900000000003 0.5 0.5 0.5 0.5 0.5 0.5 0.5 0.5 0.5 0.5 0.5 0.5 0.5 0.5 0.5 0.5 0.194844 0.805156 0.992932 0.007067999999999963 0.17772 0.82228 0.271741 0.728259 0.272681 0.727319 0.843398 0.15660200000000002 0.486123 0.5138769999999999 0.524835 0.47516499999999995 0.733743 0.26625699999999997 0.828206 0.171794 0.182971 0.817029 0.665479 0.33452099999999996 0.5 0.5 0.5 0.5 0.5 0.5 0.5 0.5 0.5 0.5 0.5 0.5 0.5 0.5 0.5 0.5 0.5 0.5 0.5 0.5 0.5 0.5 0.5 0.5 0.5 0.5 0.5 0.5 0.5 0.5 0.5 0.5 0.23456 0.76544 0.501224 0.498776 0.692781 0.307219 0.720683 0.27931700000000004 0.5 0.5 0.5 0.5 0.5 0.5 0.5 0.5 0.5 0.5 0.5 0.5 0.5 0.5 0.5 0.5 0.5 0.5 0.5 0.5 0.5 0.5 0.5 0.5 0.0352515 0.9647485 0.0131899 0.9868101 0.992262 0.007738000000000023 0.41805 0.58195 0.5 0.5 0.5 0.5 0.5 0.5 0.5 0.5 0.0158177 0.9841823 0.772853 0.227147 0.5 0.5 0.5 0.5 0.5 0.5 0.5 0.5 0.5 0.5 0.5 0.5 0.5 0.5 0.5 0.5 0.143224 0.856776 0.52388 0.47612 0.942151 0.05784900000000004 0.331749 0.6682509999999999 0.5 0.5 0.5 0.5 0.5 0.5 0.5 0.5 0.19795 0.80205 0.723748 0.27625200000000005 0.988233 0.011766999999999972 0.193642 0.806358 0.5 0.5 0.5 0.5 0.5 0.5 0.5 0.5 0.5 0.5 0.5 0.5 0.5 0.5 0.5 0.5 0.5 0.5 0.5 0.5 0.5 0.5 0.5 0.5 0.5 0.5 0.5 0.5 0.5 0.5 0.5 0.5 0.5 0.5 0.5 0.5 0.5 0.5 0.5 0.5 0.5 0.5 0.5 0.5 0.5 0.5 0.5 0.5 0.5 0.5 0.5 0.5 0.5 0.5 0.5 0.5 0.5 0.5 0.5 0.5 0.5 0.5 0.5 0.5 0.5 0.5 0.5 0.5 0.5 0.5 0.5 0.5 0.5 0.5 0.5 0.5 0.5 0.5 0.5 0.5 0.5 0.5 0.5 0.5 0.5 0.5 0.5 0.5 0.5 0.5 0.5 0.5 0.5 0.5 0.5 0.5 0.5 0.5 0.5 0.5 0.5 0.5 0.5 0.5 0.5 0.5 0.5 0.5 0.5 0.5 0.5 0.5 0.5 0.5 0.5 0.5 0.5 0.5 0.5 0.5 0.5 0.5 0.5 0.5 0.5 0.5 0.5 0.5 0.5 0.5 0.5 0.5 0.5 0.5 0.5 0.5 0.5 0.5 0.5 0.5 0.437086 0.562914 0.328469 0.671531 0.837757 0.16224300000000003 0.179464 0.8205359999999999 0.5 0.5 0.5 0.5 0.5 0.5 0.5 0.5 0.5 0.5 0.5 0.5 0.5 0.5 0.5 0.5 0.5 0.5 0.5 0.5 0.5 0.5 0.5 0.5 0.5 0.5 0.5 0.5 0.5 0.5 0.5 0.5 0.5 0.5 0.5 0.5 0.5 0.5 0.5 0.5 0.5 0.5 0.5 0.5 0.5 0.5 0.5 0.5 0.5 0.5 0.5 0.5 0.5 0.5 0.5 0.5 0.5 0.5 0.5 0.5 0.5 0.5 0.5 0.5 0.5 0.5 0.5 0.5 0.5 0.5 0.5 0.5 0.5 0.5 0.5 0.5 0.5 0.5 0.5 0.5 0.5 0.5 0.5 0.5 0.5 0.5 0.5 0.5 0.5 0.5 0.5 0.5 0.5 0.5 0.5 0.5 0.5 0.5 0.5 0.5 0.5 0.5 0.5 0.5 0.5 0.5 0.5 0.5 0.5 0.5 0.5 0.5 0.5 0.5 0.5 0.5 0.5 0.5 0.5 0.5 0.5 0.5 0.5 0.5 0.5 0.5 0.5 0.5 0.5 0.5 0.5 0.5 0.5 0.5 0.5 0.5 0.5 0.5 0.5 0.5 0.5 0.5 0.5 0.5 0.5 0.5 0.5 0.5 0.5 0.5 0.5 0.5 0.5 0.5 0.5 0.5 0.5 0.5 0.5 0.5 0.5 0.5 0.5 0.5 0.5 0.5 0.5 0.5 0.5 0.5 0.5 0.5 0.5 0.5 0.5 0.5 0.5 0.5 0.5 0.5 0.5 0.5 0.5 0.5 0.875826 0.124174 0.666695 0.33330499999999996 0.677994 0.322006 0.26448 0.73552 0.5 0.5 0.5 0.5 0.5 0.5 0.5 0.5 0.5 0.5 0.5 0.5 0.5 0.5 0.5 0.5 0.582709 0.41729099999999997 0.0952278 0.9047722 0.732548 0.267452 0.0516449 0.9483551 0.557181 0.44281899999999996 0.0710058 0.9289942 0.127851 0.8721490000000001 0.830894 0.16910599999999998 0.5 0.5 0.5 0.5 0.5 0.5 0.5 0.5 0.696176 0.303824 0.458336 0.5416639999999999 0.579776 0.42022400000000004 0.374171 0.625829 0.5 0.5 0.5 0.5 0.5 0.5 0.5 0.5 0.5 0.5 0.5 0.5 0.5 0.5 0.5 0.5 0.5 0.5 0.5 0.5 0.991266 0.00873400000000002 0.980929 0.01907099999999995 0.787713 0.212287 0.548447 0.451553 0.5 0.5 0.5 0.5 0.5 0.5 0.5 0.5 0.5 0.5 0.5 0.5 0.5 0.5 0.5 0.5 0.5 0.5 0.5 0.5 0.5 0.5 0.5 0.5 0.5 0.5 0.5 0.5 0.5 0.5 0.5 0.5 0.5 0.5 0.5 0.5 0.5 0.5 0.5 0.5 0.5 0.5 0.5 0.5 0.5 0.5 0.5 0.5 0.5 0.5 0.5 0.5 0.5 0.5 0.5 0.5 0.414345 0.585655 0.354821 0.645179 0.242108 0.757892 0.154621 0.845379 0.1185 0.8815 0.269068 0.730932 0.938343 0.06165699999999996 0.0453832 0.9546168 0.5 0.5 0.5 0.5 0.5 0.5 0.5 0.5 0.5 0.5 0.5 0.5 0.5 0.5 0.5 0.5 0.5 0.5 0.5 0.5 0.5 0.5 0.5 0.5 0.5 0.5 0.5 0.5 0.5 0.5 0.5 0.5 0.5 0.5 0.5 0.5 0.5 0.5 0.5 0.5 0.5 0.5 0.5 0.5 0.5 0.5 0.5 0.5 0.5 0.5 0.5 0.5 0.145989 0.854011 0.00471227 0.99528773 0.895777 0.10422299999999995 0.486472 0.513528 0.257234 0.742766 0.156863 0.843137 0.442441 0.557559 0.770076 0.22992400000000002 0.5 0.5 0.5 0.5 0.5 0.5 0.5 0.5 0.5 0.5 0.5 0.5 0.5 0.5 0.5 0.5 0.5 0.5 0.5 0.5 0.5 0.5 0.5 0.5 0.5 0.5 0.5 0.5 0.5 0.5 0.5 0.5 0.5 0.5 0.5 0.5 0.5 0.5 0.5 0.5 0.5 0.5 0.5 0.5 0.5 0.5 0.5 0.5 0.5 0.5 0.5 0.5 0.5 0.5 0.5 0.5 0.5 0.5 0.5 0.5 0.5 0.5 0.5 0.5 0.5 0.5 0.5 0.5 0.5 0.5 0.5 0.5 0.5 0.5 0.5 0.5 0.5 0.5 0.5 0.5 0.5 0.5 0.5 0.5 0.5 0.5 0.5 0.5 0.5 0.5 0.5 0.5 0.5 0.5 0.5 0.5 0.5 0.5 0.5 0.5 0.5 0.5 0.5 0.5 0.5 0.5 0.5 0.5 0.5 0.5 0.5 0.5 0.5 0.5 0.5 0.5 0.5 0.5 0.5 0.5 0.5 0.5 0.5 0.5 0.5 0.5 0.5 0.5 0.5 0.5 0.5 0.5 0.5 0.5 0.5 0.5 0.5 0.5 0.5 0.5 0.75898 0.24102 0.970367 0.02963300000000002 0.848367 0.15163300000000002 0.858021 0.14197899999999997 0.5 0.5 0.5 0.5 0.5 0.5 0.5 0.5 0.187573 0.812427 0.935884 0.06411599999999995 0.5 0.5 0.5 0.5 0.5 0.5 0.5 0.5 0.5 0.5 0.5 0.5 0.5 0.5 0.5 0.5 0.5 0.5 0.5 0.5 0.5 0.5 0.5 0.5 0.5 0.5 0.5 0.5 0.5 0.5 0.5 0.5 0.5 0.5 0.5 0.5 0.5 0.5 0.5 0.5 0.723757 0.276243 0.4621 0.5379 0.574088 0.42591199999999996 0.91133 0.08867000000000003 0.5 0.5 0.5 0.5 0.5 0.5 0.5 0.5 0.774582 0.225418 0.981356 0.018643999999999994 0.882072 0.11792800000000003 0.376376 0.623624 0.5 0.5 0.5 0.5 0.5 0.5 0.5 0.5 0.5 0.5 0.5 0.5 0.5 0.5 0.5 0.5 0.5 0.5 0.5 0.5 0.5 0.5 0.5 0.5 0.5 0.5 0.5 0.5 0.5 0.5 0.5 0.5 0.5 0.5 0.5 0.5 0.5 0.5 0.5 0.5 0.982656 0.017344000000000026 0.237391 0.762609 0.864728 0.13527199999999995 0.613767 0.38623300000000005 0.243105 0.756895 0.368163 0.631837 0.5 0.5 0.5 0.5 0.5 0.5 0.5 0.5 0.5 0.5 0.5 0.5 0.5 0.5 0.5 0.5 0.5 0.5 0.5 0.5 0.5 0.5 0.5 0.5 0.961181 0.03881900000000005 0.896773 0.10322699999999996 0.92266 0.07733999999999996 0.602383 0.397617 0.5 0.5 0.5 0.5 0.5 0.5 0.5 0.5 0.5 0.5 0.5 0.5 0.5 0.5 0.5 0.5 0.937164 0.062836 0.491509 0.508491 0.403865 0.5961350000000001 0.847458 0.15254199999999996 0.989993 0.010006999999999988 0.0946291 0.9053709 0.911781 0.08821900000000005 0.100452 0.899548 0.5 0.5 0.5 0.5 0.5 0.5 0.5 0.5 0.5 0.5 0.5 0.5 0.5 0.5 0.5 0.5 0.5 0.5 0.5 0.5 0.5 0.5 0.5 0.5 0.56735 0.43265 0.505514 0.494486 0.121137 0.878863 0.965357 0.03464299999999998 0.0786203 0.9213797 0.902521 0.09747899999999998 0.5 0.5 0.5 0.5 0.5 0.5 0.5 0.5 0.171623 0.828377 0.57293 0.42706999999999995 0.337395 0.662605 0.653798 0.346202 0.5 0.5 0.5 0.5 0.5 0.5 0.5 0.5 0.5 0.5 0.5 0.5 0.5 0.5 0.5 0.5 0.5 0.5 0.5 0.5 0.5 0.5 0.5 0.5 0.5 0.5 0.5 0.5 0.5 0.5 0.5 0.5 0.5 0.5 0.5 0.5 0.5 0.5 0.5 0.5 0.5 0.5 0.5 0.5 0.5 0.5 0.5 0.5 0.5 0.5 0.5 0.5 0.5 0.5 0.5 0.5 0.5 0.5 0.5 0.5 0.5 0.5 0.5 0.5 0.5 0.5 0.5 0.5 0.5 0.5 0.5 0.5 0.5 0.5 0.5 0.5 0.5 0.5 0.5 0.5 0.5 0.5 0.5 0.5 0.5 0.5 0.5 0.5 0.5 0.5 0.5 0.5 0.00420083 0.99579917 0.753358 0.24664200000000003 0.172996 0.827004 0.640938 0.359062 0.5 0.5 0.5 0.5 0.5 0.5 0.5 0.5 0.5 0.5 0.5 0.5 0.5 0.5 0.5 0.5 0.5 0.5 0.5 0.5 0.5 0.5 0.5 0.5 0.5 0.5 0.5 0.5 0.5 0.5 0.5 0.5 0.5 0.5 0.5 0.5 0.5 0.5 0.5 0.5 0.5 0.5 0.5 0.5 0.5 0.5 0.5 0.5 0.5 0.5 0.5 0.5 0.5 0.5 0.5 0.5 0.5 0.5 0.5 0.5 0.5 0.5 0.5 0.5 0.5 0.5 0.5 0.5 0.5 0.5 0.5 0.5 0.612381 0.38761900000000005 0.940097 0.05990300000000004 0.980989 0.019011 0.139622 0.860378 0.5 0.5 0.5 0.5 0.5 0.5 0.5 0.5 0.5 0.5 0.5 0.5 0.5 0.5 0.5 0.5 0.5 0.5 0.5 0.5 0.5 0.5 0.5 0.5 0.5 0.5 0.5 0.5 0.5 0.5 0.5 0.5 0.5 0.5 0.5 0.5 0.5 0.5 0.5 0.5 0.5 0.5 0.5 0.5 0.5 0.5 0.5 0.5 0.5 0.5 0.5 0.5 0.5 0.5 0.5 0.5 0.5 0.5 0.5 0.5 0.5 0.5 0.5 0.5 0.5 0.5 0.5 0.5 0.5 0.5 0.5 0.5 0.5 0.5 0.5 0.5 0.5 0.5 0.5 0.5 0.5 0.5 0.5 0.5 0.5 0.5 0.5 0.5 0.5 0.5 0.5 0.5 0.64978 0.35022 0.385976 0.614024 0.341723 0.658277 0.402452 0.597548 0.5 0.5 0.5 0.5 0.5 0.5 0.5 0.5 0.5 0.5 0.5 0.5 0.5 0.5 0.5 0.5 0.5 0.5 0.5 0.5 0.5 0.5 0.5 0.5
-1 2 0
1 -2 0
-2 -3 0
2 3 0
-3 -4 0
3 4 0
-4 5 0
4 -5 0
-5 6 0
5 -6 0
-6 -7 0
6 7 0
-7 8 0
7 -8 0
-8 -211 9 0
-8 211 -9 0
8 -212 9 0
8 212 -9 0
-9 -213 10 0
-9 213 -10 0
9 -214 10 0
9 214 -10 0
-10 -215 11 0
-10 215 -11 0
10 -216 11 0
10 216 -11 0
-11 -12 0
11 12 0
-12 13 0
12 -13 0
-13 14 0
13 -14 0
-1 -15 0
1 15 0
-15 -2 -225 16 0
-15 -2 225 -16 0
-15 2 -226 16 0
-15 2 226 -16 0
15 -2 -227 16 0
15 -2 227 -16 0
15 2 -228 16 0
15 2 228 -16 0
-16 -3 -229 17 0
-16 -3 229 -17 0
-16 3 -230 17 0
-16 3 230 -17 0
16 -3 -231 17 0
16 -3 231 -17 0
16 3 -232 17 0
16 3 232 -17 0
-17 -4 -233 18 0
-17 -4 233 -18 0
-17 4 -234 18 0
-17 4 234 -18 0
17 -4 -235 18 0
17 -4 235 -18 0
17 4 -236 18 0
17 4 236 -18 0
-18 -5 -19 0
-18 5 19 0
18 -5 19 0
18 5 19 0
-19 -6 -20 0
-19 6 20 0
19 -6 -20 0
19 6 20 0
-20 -7 21 0
-20 7 21 0
20 -7 -21 0
20 7 21 0
-21 -8 22 0
-21 8 22 0
21 -8 -22 0
21 8 -22 0
-22 -9 -253 23 0
-22 -9 253 -23 0
-22 9 -254 23 0
-22 9 254 -23 0
22 -9 -255 23 0
22 -9 255 -23 0
22 9 -256 23 0
22 9 256 -23 0
-23 -10 -24 0
-23 10 -24 0
23 -10 24 0
23 10 -24 0
-24 -11 -25 0
-24 11 25 0
24 -11 25 0
24 11 25 0
-25 -12 -26 0
-25 12 26 0
25 -12 -26 0
25 12 -26 0
-26 -13 -269 27 0
-26 -13 269 -27 0
-26 13 -270 27 0
-26 13 270 -27 0
26 -13 -271 27 0
26 -13 271 -27 0
26 13 -272 27 0
26 13 272 -27 0
-27 -14 28 0
-27 14 -28 0
27 -14 28 0
27 14 28 0
-15 -277 29 0
-15 277 -29 0
15 -278 29 0
15 278 -29 0
-29 -16 30 0
-29 16 -30 0
29 -16 30 0
29 16 30 0
-30 -17 -31 0
-30 17 -31 0
30 -17 -31 0
30 17 31 0
-31 -18 -287 32 0
-31 -18 287 -32 0
-31 18 -288 32 0
-31 18 288 -32 0
31 -18 -289 32 0
31 -18 289 -32 0
31 18 -290 32 0
31 18 290 -32 0
-32 -19 -33 0
-32 19 -33 0
32 -19 33 0
32 19 -33 0
-33 -20 -295 34 0
-33 -20 295 -34 0
-33 20 -296 34 0
-33 20 296 -34 0
33 -20 -297 34 0
33 -20 297 -34 0
33 20 -298 34 0
33 20 298 -34 0
-34 -21 35 0
-34 21 -35 0
34 -21 -35 0
34 21 35 0
-35 -22 36 0
-35 22 36 0
35 -22 36 0
35 22 -36 0
-36 -23 37 0
-36 23 -37 0
36 -23 37 0
36 23 -37 0
-37 -24 -38 0
-37 24 -38 0
37 -24 -38 0
37 24 38 0
-38 -25 -39 0
-38 25 39 0
38 -25 -39 0
38 25 39 0
-39 -26 40 0
-39 26 40 0
39 -26 -40 0
39 26 40 0
-40 -27 41 0
-40 27 41 0
40 -27 -41 0
40 27 41 0
-41 -28 42 0
-41 28 -42 0
41 -28 42 0
41 28 42 0
-29 -43 0
29 43 0
-43 -30 -44 0
-43 30 44 0
43 -30 -44 0
43 30 44 0
-44 -31 -45 0
-44 31 45 0
44 -31 -45 0
44 31 -45 0
-45 -32 -46 0
-45 32 46 0
45 -32 -46 0
45 32 -46 0
-46 -33 47 0
-46 33 -47 0
46 -33 47 0
46 33 -47 0
-47 -34 48 0
-47 34 -48 0
47 -34 -48 0
47 34 -48 0
-48 -35 49 0
-48 35 49 0
48 -35 49 0
48 35 -49 0
-49 -36 -50 0
-49 36 50 0
49 -36 50 0
49 36 50 0
-50 -37 51 0
-50 37 51 0
50 -37 -51 0
50 37 -51 0
-51 -38 -52 0
-51 38 52 0
51 -38 52 0
51 38 -52 0
-52 -39 -369 53 0
-52 -39 369 -53 0
-52 39 -370 53 0
-52 39 370 -53 0
52 -39 -371 53 0
52 -39 371 -53 0
52 39 -372 53 0
52 39 372 -53 0
-53 -40 -54 0
-53 40 54 0
53 -40 -54 0
53 40 -54 0
-54 -41 55 0
-54 41 -55 0
54 -41 -55 0
54 41 -55 0
-55 -42 -56 0
-55 42 56 0
55 -42 56 0
55 42 56 0
-43 57 0
43 -57 0
-57 -44 -58 0
-57 44 58 0
57 -44 58 0
57 44 -58 0
-58 -45 -59 0
-58 45 59 0
58 -45 -59 0
58 45 59 0
-59 -46 60 0
-59 46 -60 0
59 -46 -60 0
59 46 60 0
-60 -47 61 0
-60 47 61 0
60 -47 61 0
60 47 -61 0
-61 -48 62 0
-61 48 -62 0
61 -48 62 0
61 48 62 0
-62 -49 -63 0
-62 49 -63 0
62 -49 63 0
62 49 63 0
-63 -50 64 0
-63 50 -64 0
63 -50 -64 0
63 50 64 0
-64 -51 -65 0
-64 51 65 0
64 -51 65 0
64 51 -65 0
-65 -52 -66 0
-65 52 -66 0
65 -52 66 0
65 52 66 0
-66 -53 67 0
-66 53 -67 0
66 -53 -67 0
66 53 67 0
-67 -54 68 0
-67 54 -68 0
67 -54 -68 0
67 54 -68 0
-68 -55 -69 0
-68 55 -69 0
68 -55 -69 0
68 55 69 0
-69 -56 70 0
-69 56 -70 0
69 -56 70 0
69 56 -70 0
-57 -71 0
57 71 0
-71 -58 72 0
-71 58 72 0
71 -58 -72 0
71 58 -72 0
-72 -59 73 0
-72 59 73 0
72 -59 -73 0
72 59 -73 0
-73 -60 -74 0
-73 60 -74 0
73 -60 -74 0
73 60 74 0
-74 -61 -75 0
-74 61 75 0
74 -61 -75 0
74 61 75 0
-75 -62 -76 0
-75 62 -76 0
75 -62 -76 0
75 62 76 0
-76 -63 77 0
-76 63 77 0
76 -63 -77 0
76 63 77 0
-77 -64 -465 78 0
-77 -64 465 -78 0
-77 64 -466 78 0
-77 64 466 -78 0
77 -64 -467 78 0
77 -64 467 -78 0
77 64 -468 78 0
77 64 468 -78 0
-78 -65 79 0
-78 65 79 0
78 -65 79 0
78 65 -79 0
-79 -66 80 0
-79 66 -80 0
79 -66 -80 0
79 66 -80 0
-80 -67 -477 81 0
-80 -67 477 -81 0
-80 67 -478 81 0
-80 67 478 -81 0
80 -67 -479 81 0
80 -67 479 -81 0
80 67 -480 81 0
80 67 480 -81 0
-81 -68 -481 82 0
-81 -68 481 -82 0
-81 68 -482 82 0
-81 68 482 -82 0
81 -68 -483 82 0
81 -68 483 -82 0
81 68 -484 82 0
81 68 484 -82 0
-82 -69 -83 0
-82 69 83 0
82 -69 -83 0
82 69 83 0
-83 -70 -489 84 0
-83 -70 489 -84 0
-83 70 -490 84 0
-83 70 490 -84 0
83 -70 -491 84 0
83 -70 491 -84 0
83 70 -492 84 0
83 70 492 -84 0
-71 85 0
71 -85 0
-85 -72 86 0
-85 72 86 0
85 -72 -86 0
85 72 86 0
-86 -73 87 0
-86 73 87 0
86 -73 -87 0
86 73 87 0
-87 -74 -503 88 0
-87 -74 503 -88 0
-87 74 -504 88 0
-87 74 504 -88 0
87 -74 -505 88 0
87 -74 505 -88 0
87 74 -506 88 0
87 74 506 -88 0
-88 -75 89 0
-88 75 89 0
88 -75 -89 0
88 75 89 0
-89 -76 -90 0
-89 76 90 0
89 -76 -90 0
89 76 -90 0
-90 -77 -91 0
-90 77 -91 0
90 -77 -91 0
90 77 91 0
-91 -78 92 0
-91 78 -92 0
91 -78 92 0
91 78 -92 0
-92 -79 -93 0
-92 79 93 0
92 -79 -93 0
92 79 -93 0
-93 -80 -94 0
-93 80 94 0
93 -80 -94 0
93 80 94 0
-94 -81 95 0
-94 81 95 0
94 -81 -95 0
94 81 95 0
-95 -82 -535 96 0
-95 -82 535 -96 0
-95 82 -536 96 0
-95 82 536 -96 0
95 -82 -537 96 0
95 -82 537 -96 0
95 82 -538 96 0
95 82 538 -96 0
-96 -83 -539 97 0
-96 -83 539 -97 0
-96 83 -540 97 0
-96 83 540 -97 0
96 -83 -541 97 0
96 -83 541 -97 0
96 83 -542 97 0
96 83 542 -97 0
-97 -84 -98 0
-97 84 98 0
97 -84 98 0
97 84 98 0
-85 -99 0
85 99 0
-99 -86 -100 0
-99 86 -100 0
99 -86 100 0
99 86 100 0
-100 -87 101 0
-100 87 -101 0
100 -87 101 0
100 87 -101 0
-101 -88 -102 0
-101 88 102 0
101 -88 -102 0
101 88 -102 0
-102 -89 103 0
-102 89 103 0
102 -89 103 0
102 89 -103 0
-103 -90 -104 0
-103 90 104 0
103 -90 -104 0
103 90 104 0
-104 -91 -569 105 0
-104 -91 569 -105 0
-104 91 -570 105 0
-104 91 570 -105 0
104 -91 -571 105 0
104 -91 571 -105 0
104 91 -572 105 0
104 91 572 -105 0
-105 -92 -573 106 0
-105 -92 573 -106 0
-105 92 -574 106 0
-105 92 574 -106 0
105 -92 -575 106 0
105 -92 575 -106 0
105 92 -576 106 0
105 92 576 -106 0
-106 -93 -107 0
-106 93 -107 0
106 -93 107 0
106 93 -107 0
-107 -94 -108 0
-107 94 -108 0
107 -94 108 0
107 94 -108 0
-108 -95 109 0
-108 95 -109 0
108 -95 -109 0
108 95 109 0
-109 -96 -110 0
-109 96 -110 0
109 -96 110 0
109 96 110 0
-110 -97 -111 0
-110 97 -111 0
110 -97 111 0
110 97 -111 0
-111 -98 112 0
-111 98 112 0
111 -98 112 0
111 98 -112 0
-99 113 0
99 -113 0
-113 -100 -114 0
-113 100 -114 0
113 -100 114 0
113 100 -114 0
-114 -101 115 0
-114 101 -115 0
114 -101 -115 0
114 101 115 0
-115 -102 116 0
-115 102 -116 0
115 -102 116 0
115 102 116 0
-116 -103 -117 0
-116 103 117 0
116 -103 117 0
116 103 -117 0
-117 -104 -118 0
-117 104 118 0
117 -104 -118 0
117 104 118 0
-118 -105 119 0
-118 105 119 0
118 -105 -119 0
118 105 119 0
-119 -106 -120 0
-119 106 120 0
119 -106 -120 0
119 106 120 0
-120 -107 121 0
-120 107 -121 0
120 -107 121 0
120 107 -121 0
-121 -108 -122 0
-121 108 122 0
121 -108 122 0
121 108 122 0
-122 -109 -123 0
-122 109 123 0
122 -109 -123 0
122 109 123 0
-123 -110 124 0
-123 110 124 0
123 -110 -124 0
123 110 124 0
-124 -111 -647 125 0
-124 -111 647 -125 0
-124 111 -648 125 0
-124 111 648 -125 0
124 -111 -649 125 0
124 -111 649 -125 0
124 111 -650 125 0
124 111 650 -125 0
-125 -112 -126 0
-125 112 -126 0
125 -112 -126 0
125 112 126 0
-113 -655 127 0
-113 655 -127 0
113 -656 127 0
113 656 -127 0
-127 -114 128 0
-127 114 -128 0
127 -114 128 0
127 114 128 0
-128 -115 -129 0
-128 115 -129 0
128 -115 129 0
128 115 129 0
-129 -116 130 0
-129 116 130 0
129 -116 130 0
129 116 -130 0
-130 -117 -131 0
-130 117 131 0
130 -117 -131 0
130 117 -131 0
-131 -118 -132 0
-131 118 -132 0
131 -118 132 0
131 118 -132 0
-132 -119 -677 133 0
-132 -119 677 -133 0
-132 119 -678 133 0
-132 119 678 -133 0
132 -119 -679 133 0
132 -119 679 -133 0
132 119 -680 133 0
132 119 680 -133 0
-133 -120 134 0
-133 120 -134 0
133 -120 -134 0
133 120 -134 0
-134 -121 -685 135 0
-134 -121 685 -135 0
-134 121 -686 135 0
-134 121 686 -135 0
134 -121 -687 135 0
134 -121 687 -135 0
134 121 -688 135 0
134 121 688 -135 0
-135 -122 136 0
-135 122 -136 0
135 -122 136 0
135 122 -136 0
-136 -123 137 0
-136 123 -137 0
136 -123 137 0
136 123 137 0
-137 -124 -138 0
-137 124 138 0
137 -124 -138 0
137 124 138 0
-138 -125 139 0
-138 125 -139 0
138 -125 -139 0
138 125 139 0
-139 -126 140 0
-139 126 -140 0
139 -126 140 0
139 126 140 0
-127 -709 141 0
-127 709 -141 0
127 -710 141 0
127 710 -141 0
-141 -128 -711 142 0
-141 -128 711 -142 0
-141 128 -712 142 0
-141 128 712 -142 0
141 -128 -713 142 0
141 -128 713 -142 0
141 128 -714 142 0
141 128 714 -142 0
-142 -129 -143 0
-142 129 -143 0
142 -129 143 0
142 129 -143 0
-143 -130 144 0
-143 130 -144 0
143 -130 -144 0
143 130 144 0
-144 -131 -145 0
-144 131 145 0
144 -131 -145 0
144 131 -145 0
-145 -132 -727 146 0
-145 -132 727 -146 0
-145 132 -728 146 0
-145 132 728 -146 0
145 -132 -729 146 0
145 -132 729 -146 0
145 132 -730 146 0
145 132 730 -146 0
-146 -133 -147 0
-146 133 147 0
146 -133 -147 0
146 133 147 0
-147 -134 148 0
-147 134 148 0
147 -134 -148 0
147 134 148 0
-148 -135 -739 149 0
-148 -135 739 -149 0
-148 135 -740 149 0
-148 135 740 -149 0
148 -135 -741 149 0
148 -135 741 -149 0
148 135 -742 149 0
148 135 742 -149 0
-149 -136 -743 150 0
-149 -136 743 -150 0
-149 136 -744 150 0
-149 136 744 -150 0
149 -136 -745 150 0
149 -136 745 -150 0
149 136 -746 150 0
149 136 746 -150 0
-150 -137 151 0
-150 137 -151 0
150 -137 -151 0
150 137 151 0
-151 -138 152 0
-151 138 -152 0
151 -138 -152 0
151 138 -152 0
-152 -139 -153 0
-152 139 -153 0
152 -139 -153 0
152 139 153 0
-153 -140 -759 154 0
-153 -140 759 -154 0
-153 140 -760 154 0
-153 140 760 -154 0
153 -140 -761 154 0
153 -140 761 -154 0
153 140 -762 154 0
153 140 762 -154 0
-141 -763 155 0
-141 763 -155 0
141 -764 155 0
141 764 -155 0
-155 -142 -156 0
-155 142 156 0
155 -142 156 0
155 142 -156 0
-156 -143 -769 157 0
-156 -143 769 -157 0
-156 143 -770 157 0
-156 143 770 -157 0
156 -143 -771 157 0
156 -143 771 -157 0
156 143 -772 157 0
156 143 772 -157 0
-157 -144 -158 0
-157 144 158 0
157 -144 -158 0
157 144 158 0
-158 -145 -159 0
-158 145 159 0
158 -145 -159 0
158 145 159 0
-159 -146 -160 0
-159 146 -160 0
159 -146 -160 0
159 146 160 0
-160 -147 -161 0
-160 147 -161 0
160 -147 -161 0
160 147 161 0
-161 -148 -162 0
-161 148 -162 0
161 -148 -162 0
161 148 162 0
-162 -149 163 0
-162 149 -163 0
162 -149 -163 0
162 149 -163 0
-163 -150 -164 0
-163 150 164 0
163 -150 -164 0
163 150 164 0
-164 -151 165 0
-164 151 165 0
164 -151 -165 0
164 151 -165 0
-165 -152 -166 0
-165 152 -166 0
165 -152 166 0
165 152 166 0
-166 -153 -167 0
-166 153 167 0
166 -153 167 0
166 153 167 0
-167 -154 168 0
-167 154 168 0
167 -154 -168 0
167 154 168 0
-155 -169 0
155 169 0
-169 -156 -819 170 0
-169 -156 819 -170 0
-169 156 -820 170 0
-169 156 820 -170 0
169 -156 -821 170 0
169 -156 821 -170 0
169 156 -822 170 0
169 156 822 -170 0
-170 -157 171 0
-170 157 171 0
170 -157 171 0
170 157 -171 0
-171 -158 172 0
-171 158 -172 0
171 -158 -172 0
171 158 172 0
-172 -159 173 0
-172 159 -173 0
172 -159 173 0
172 159 173 0
-173 -160 -174 0
-173 160 -174 0
173 -160 -174 0
173 160 174 0
-174 -161 175 0
-174 161 175 0
174 -161 -175 0
174 161 -175 0
-175 -162 176 0
-175 162 -176 0
175 -162 176 0
175 162 -176 0
-176 -163 -177 0
-176 163 177 0
176 -163 -177 0
176 163 177 0
-177 -164 -178 0
-177 164 -178 0
177 -164 -178 0
177 164 178 0
-178 -165 179 0
-178 165 -179 0
178 -165 179 0
178 165 -179 0
-179 -166 -859 180 0
-179 -166 859 -180 0
-179 166 -860 180 0
-179 166 860 -180 0
179 -166 -861 180 0
179 -166 861 -180 0
179 166 -862 180 0
179 166 862 -180 0
-180 -167 -181 0
-180 167 181 0
180 -167 -181 0
180 167 -181 0
-181 -168 182 0
-181 168 182 0
181 -168 -182 0
181 168 -182 0
-169 183 0
169 -183 0
-183 -170 184 0
-183 170 -184 0
183 -170 184 0
183 170 184 0
-184 -171 185 0
-184 171 185 0
184 -171 185 0
184 171 -185 0
-185 -172 -186 0
-185 172 186 0
185 -172 -186 0
185 172 186 0
-186 -173 -187 0
-186 173 187 0
186 -173 -187 0
186 173 187 0
-187 -174 188 0
-187 174 188 0
187 -174 -188 0
187 174 188 0
-188 -175 189 0
-188 175 189 0
188 -175 -189 0
188 175 189 0
-189 -176 -190 0
-189 176 -190 0
189 -176 190 0
189 176 190 0
-190 -177 191 0
-190 177 -191 0
190 -177 -191 0
190 177 191 0
-191 -178 192 0
-191 178 192 0
191 -178 -192 0
191 178 192 0
-192 -179 -909 193 0
-192 -179 909 -193 0
-192 179 -910 193 0
-192 179 910 -193 0
192 -179 -911 193 0
192 -179 911 -193 0
192 179 -912 193 0
192 179 912 -193 0
-193 -180 -194 0
-193 180 194 0
193 -180 194 0
193 180 -194 0
-194 -181 -195 0
-194 181 195 0
194 -181 -195 0
194 181 195 0
-195 -182 -196 0
-195 182 196 0
195 -182 196 0
195 182 -196 0
196 0
