data/benchmarks/bayes/75-14-1-q.gr
p tw 924 909
67 68
177 190
99 100
26 39
133 678
15 277
59 73
136 149
159 160
8 9
118 131
40 41
77 90
27 269
81 478
100 101
135 687
132 133
179 910
92 106
192 193
41 42
151 164
73 74
127 710
110 123
23 253
33 47
133 134
83 542
87 503
125 139
51 64
16 232
74 75
128 711
106 107
149 743
143 156
66 80
166 167
9 211
34 295
88 504
15 16
105 575
142 713
47 48
158 172
179 860
7 21
107 108
150 744
26 272
170 820
99 113
48 49
180 861
80 81
40 54
81 482
82 536
146 728
132 146
4 235
81 82
25 38
73 87
104 569
173 174
22 23
33 298
16 227
165 179
14 28
114 115
68 484
105 570
106 120
55 56
193 911
47 61
53 370
147 148
139 153
169 819
29 278
81 477
135 686
80 94
145 727
172 186
127 709
83 541
181 182
22 256
173 187
84 97
15 226
149 742
176 189
105 574
142 712
77 466
125 650
158 171
97 542
179 859
117 130
140 760
80 480
21 22
147 161
58 71
180 860
83 491
113 114
150 163
82 535
92 576
132 145
54 55
91 104
4 234
84 492
146 147
32 45
87 506
165 178
87 88
124 137
134 685
68 483
179 180
148 741
106 119
18 235
65 78
88 89
120 121
193 910
124 649
53 369
157 170
6 19
180 181
29 30
139 152
61 62
98 111
29 277
21 35
121 122
135 685
153 154
80 93
2 3
113 127
39 52
62 63
172 185
94 95
131 144
54 68
13 27
3 4
104 572
35 36
22 255
72 85
146 160
32 287
105 119
95 96
15 225
127 128
164 177
87 101
52 372
187 188
46 60
36 37
77 465
68 69
179 193
28 42
97 541
128 129
140 759
160 161
120 134
79 93
69 70
101 102
169 822
83 490
61 75
161 162
20 34
10 11
153 167
92 575
145 730
64 467
2 16
102 103
143 769
192 909
94 108
194 195
53 67
43 44
119 677
35 49
135 136
106 576
68 482
127 141
148 740
38 51
18 234
86 100
76 77
141 710
82 484
68 82
193 909
124 648
27 41
160 174
101 115
12 25
60 74
1 15
3 232
13 26
136 743
105 118
156 819
134 688
52 371
9 10
46 59
132 727
138 151
141 714
19 32
79 92
154 760
134 135
83 489
171 184
2 226
20 33
75 76
64 466
112 125
31 289
20 298
16 17
53 66
67 477
108 109
32 290
145 158
70 491
106 575
96 540
148 739
49 50
86 99
109 110
141 709
82 483
178 191
124 647
27 40
50 51
10 216
82 83
119 132
42 56
142 143
125 647
23 24
134 148
60 73
135 741
83 84
115 116
152 165
75 89
143 772
175 176
34 48
111 649
24 25
192 912
93 106
13 272
16 30
116 117
17 233
119 680
96 535
108 122
166 859
67 81
57 58
167 168
89 90
9 256
126 139
49 63
159 173
149 150
141 713
8 22
30 31
100 114
90 91
154 759
82 96
2 225
41 55
31 32
141 142
23 37
64 465
123 124
133 147
31 288
74 506
115 129
95 538
78 467
74 88
64 65
174 175
121 685
157 769
56 70
166 180
156 157
15 29
156 822
5 6
70 490
106 574
96 539
133 677
59 72
107 121
97 98
132 730
167 181
153 762
82 482
18 290
89 103
189 190
48 62
179 909
148 149
92 105
10 215
30 44
140 154
33 46
81 95
135 740
141 155
125 138
156 772
16 231
91 572
22 36
122 123
34 47
111 648
66 79
132 680
114 128
88 503
67 480
39 372
174 188
17 232
7 20
55 69
150 743
26 271
67 80
170 819
159 172
8 21
40 53
27 272
81 481
146 727
63 64
100 113
148 162
4 5
41 54
23 256
73 86
33 297
16 226
133 146
181 195
14 27
128 714
37 38
78 466
74 87
95 537
105 569
122 136
149 746
9 214
34 298
166 179
17 236
47 60
107 120
130 131
167 180
153 761
18 289
11 12
48 61
140 153
163 164
44 45
81 94
83 540
156 771
173 186
16 230
22 35
149 741
155 156
132 679
114 127
105 573
142 711
121 688
137 138
39 371
174 187
125 649
96 97
18 19
55 68
26 270
80 479
88 102
188 189
147 160
180 194
170 171
180 859
29 43
129 130
27 271
81 480
121 135
111 112
148 161
4 233
84 491
62 76
162 163
23 255
154 168
33 296
16 225
3 17
87 505
103 104
144 145
181 194
95 536
95 109
85 86
149 745
122 135
195 196
155 169
9 213
88 506
177 178
36 50
179 862
136 137
96 110
128 142
118 119
77 78
18 288
21 34
69 83
169 170
141 764
81 484
82 538
129 143
161 175
151 152
10 24
110 111
54 67
102 116
83 539
51 52
104 571
22 254
146 159
156 770
162 176
16 229
43 57
143 144
113 656
149 740
103 117
87 100
135 149
132 678
105 572
179 192
125 648
8 212
28 41
76 90
97 540
26 269
80 478
53 372
88 101
120 133
136 150
168 182
180 193
169 821
77 91
61 74
81 479
135 688
121 134
169 183
153 166
92 574
145 729
2 15
25 26
84 490
62 75
110 124
94 107
154 167
87 504
3 16
51 65
35 48
15 228
95 108
149 744
17 18
68 481
143 157
18 233
142 714
9 23
77 468
36 49
179 861
68 81
140 762
128 141
160 173
69 82
101 114
141 763
82 537
161 174
10 23
102 115
3 231
104 570
22 253
113 655
176 177
134 687
52 370
135 148
17 31
117 118
8 211
97 539
76 89
109 123
80 477
193 912
11 216
53 371
58 59
168 181
127 656
191 192
50 64
169 820
150 151
142 156
91 92
92 573
145 728
83 97
84 489
20 297
183 184
32 33
175 189
165 166
24 38
136 746
124 125
32 289
84 98
15 227
116 130
65 66
176 190
9 22
77 467
57 71
157 158
6 7
117 131
140 761
149 163
139 140
58 72
42 55
90 104
190 191
83 492
39 40
150 164
134 147
182 196
172 173
31 45
131 132
155 764
91 105
75 88
123 137
143 771
192 911
3 230
72 73
13 271
16 29
32 46
64 78
119 679
164 165
124 138
108 121
134 686
156 170
52 369
5 19
148 742
18 236
9 255
17 30
65 79
49 62
97 111
141 712
109 122
124 650
11 215
157 171
6 20
127 655
50 63
98 112
82 95
142 155
39 53
23 36
31 287
83 96
20 296
74 505
115 128
131 145
175 188
24 37
136 745
72 86
56 69
32 288
156 821
70 489
106 573
38 39
96 538
116 129
164 178
166 862
132 729
82 481
89 102
149 162
71 72
10 214
30 43
63 77
154 762
90 103
12 13
2 228
4 18
182 195
104 105
135 739
31 44
64 468
155 763
91 571
13 14
123 136
143 770
45 46
3 229
111 647
192 910
105 106
37 51
13 270
67 479
157 772
64 77
17 231
119 678
46 47
156 169
78 79
96 542
5 18
133 680
38 52
9 254
70 84
138 139
97 110
141 711
19 20
130 144
179 912
79 80
11 25
71 85
171 172
20 21
52 53
163 177
12 26
44 58
104 118
20 295
74 504
53 54
128 713
78 465
45 59
34 297
145 146
136 744
17 235
26 27
137 151
156 820
96 537
150 746
86 87
18 32
166 861
170 822
78 92
132 728
178 179
153 760
27 28
138 152
170 184
146 730
19 33
119 120
10 213
63 76
111 125
154 761
60 61
171 185
2 227
4 17
52 66
152 153
1 2
112 126
91 570
31 290
144 158
93 94
37 50
13 269
67 478
39 370
85 99
17 230
121 687
157 771
185 186
145 159
177 191
70 492
26 40
96 541
15 278
133 679
9 253
70 83
186 187
118 132
130 143
178 192
27 270
179 911
11 24
119 133
151 165
163 176
23 254
44 57
33 295
135 742
104 117
152 166
74 503
128 712
95 535
111 650
45 58
9 212
34 296
88 505
105 576
93 107
193 194
17 234
137 150
59 60
96 536
96 109
150 745
18 31
166 860
170 821
78 91
126 140
153 759
18 287
180 862
170 183
92 93
81 483
129 142
146 729
184 185
111 124
33 34
4 236
25 39
125 126
52 65
162 175
156 769
16 228
91 569
34 35
144 157
66 67
149 739
103 116
78 468
132 677
105 571
158 159
121 686
157 770
39 369
7 8
17 229
